args: ../partial/bp/M7.cnf cubes/M7.cubes 100 50 12
iteration: 0
running icadical
lim: 100
refuted: 2696, progress: 2696/9675

iteration: 1
running icadical
lim: 100
refuted: 4061, progress: 6757/9675

iteration: 2
running icadical
lim: 100
refuted: 2918, progress: 9675/9675

c --- [ banner ] -------------------------------------------------------------
c 
c CaDiCaL Radically Simplified CDCL SAT Solver
c Copyright (c) 2016-2019 Armin Biere, JKU Linz
c 
c Version 1.2.1 92d72896c49b30ad2d50c8e1061ca0681cd23e60
c g++ (GCC) 4.8.5 20150623 (Red Hat 4.8.5-39) -Wall -Wextra -O3 -DNDEBUG -std=c++0x
c Thu Jan 30 22:37:32 EST 2020 Linux lov6.int.autonlab.org 3.10.0-1062.4.1.el7.x86_64 x86_64
c 
c --- [ parsing input ] ------------------------------------------------------
c 
c reading DIMACS file from '<stdin>' (use '-h' for a list of common options)
c found 'p cnf 570 8690' header
c parsed 18365 clauses in 0.04 seconds process time
c disconnecting from '<stdin>'
c after reading 263591 bytes 0.3 MB
c 
c --- [ options ] ------------------------------------------------------------
c 
c   --report=false                 (different from default 'true')
c 
c --- [ solving ] ------------------------------------------------------------
c 
c 
c --- [ result ] -------------------------------------------------------------
c 
s UNSATISFIABLE
c 
c --- [ run-time profiling ] -------------------------------------------------
c 
c process time taken by individual solving procedures
c (percentage relative to process time for solving)
c 
c         0.00   83.04% search
c         0.00   54.46% unstable
c         0.00   26.19% lucky
c         0.00    0.00% simplify
c   =================================
c         0.00    0.92% solve
c 
c last line shows process time for solving
c (percentage relative to total process time)
c 
c --- [ statistics ] ---------------------------------------------------------
c 
c chronological:                 2        33.33 %  of conflicts
c conflicts:                     6     17857.14    per second
c decisions:                     6     17857.14    per second
c fixed:                       288        50.53 %  of all variables
c learned:                       5        83.33 %  per conflict
c minimized:                     0         0.00 %  learned literals
c propagations:                 23         0.07 M  per second
c 
c seconds are measured in process time for solving
c 
c --- [ resources ] ----------------------------------------------------------
c 
c total process time since initialization:         0.04    seconds
c total real time since initialization:            0.05    seconds
c maximum resident set size of process:            3.05    MB
c 
c --- [ shutting down ] ------------------------------------------------------
c 
c exit 20

real	0m5.739s
user	0m50.698s
sys	0m3.067s
